#######################################
### Exact MIP solver for the HHCRSP ###
#######################################
-- Instance file: new-instances/HHCRSP_75_15_5_1.6_C_C.txt
-- Max threads: 4
-- Time limit: 999999 seconds
-- Use initial solution: No
Trivial flow violations prevented generating 17384 variables.
Model exported.
Version identifier: 20.1.0.0 | 2020-11-10 | 9bedb6d68
CPXPARAM_Threads                                 4
CPXPARAM_TimeLimit                               999999
Parallel mode: deterministic, using up to 4 threads for concurrent optimization:
 * Starting dual Simplex on 1 thread...
 * Starting Barrier on 3 threads...
Tried aggregator 1 time.
LP Presolve eliminated 2814 rows and 723 columns.
Reduced LP has 21012 rows, 20324 columns, and 197983 nonzeros.
Presolve time = 0.09 sec. (55.10 ticks)
Symmetry aggregator did 18787 additional substitutions.
Initializing dual steep norms . . .

Iteration log . . .
Iteration:     1   Dual objective     =             1.000000
Iteration:   351   Dual objective     =           115.666667

Dual crossover.
  Dual:  Fixing 190 variables.
      189 DMoves:  Infeasibility  4.95714716e-14  Objective  1.15666667e+02
        0 DMoves:  Infeasibility  7.92699375e-14  Objective  1.15666667e+02
  Dual:  Pushed 9, exchanged 181.
  Primal:  Fixing 63 variables.
       62 PMoves:  Infeasibility  1.11022302e-16  Objective  1.15666667e+02
        0 PMoves:  Infeasibility  1.11022302e-16  Objective  1.15666667e+02
  Primal:  Pushed 24, exchanged 39.

Dual simplex solved model.


Solution status from MIP model:
-- Processing time: 0.177 sec.
-- Memory used: 83.7422 MB
-- Best bound: inf
-- Obj value: 115.667
-- Gap: inf%
-- Total distance: 347
-- Total tardiness: 0
-- Largest tardiness: 0
